
Gurobi 11.0.1 (win64) logging started Thu May 16 19:31:27 2024

Set parameter LogFile to value "output/solver_log38.txt"
Gurobi Optimizer version 11.0.1 build v11.0.1rc0 (win64 - Windows 11.0 (22631.2))

CPU model: 11th Gen Intel(R) Core(TM) i7-1165G7 @ 2.80GHz, instruction set [SSE2|AVX|AVX2|AVX512]
Thread count: 4 physical cores, 8 logical processors, using up to 8 threads

Optimize a model with 5351 rows, 1400 columns and 99592 nonzeros
Model fingerprint: 0xfba64b7d
Variable types: 568 continuous, 832 integer (832 binary)
Coefficient statistics:
  Matrix range     [4e-01, 1e+05]
  Objective range  [1e+00, 1e+02]
  Bounds range     [1e+00, 1e+00]
  RHS range        [1e-02, 1e+05]

User MIP start produced solution with objective 97263.8 (0.01s)
User MIP start produced solution with objective 97263.8 (0.01s)
Loaded user MIP start with objective 97263.8

Presolve removed 797 rows and 422 columns
Presolve time: 0.12s
Presolved: 4554 rows, 978 columns, 86650 nonzeros
Variable types: 528 continuous, 450 integer (445 binary)

Root relaxation: objective 9.745768e+04, 1156 iterations, 0.08 seconds (0.12 work units)

    Nodes    |    Current Node    |     Objective Bounds      |     Work
 Expl Unexpl |  Obj  Depth IntInf | Incumbent    BestBd   Gap | It/Node Time

     0     0 97457.6792    0   14 97263.8086 97457.6792  0.20%     -    0s
     0     0 97457.6700    0   14 97263.8086 97457.6700  0.20%     -    0s
     0     0 97451.0078    0   12 97263.8086 97451.0078  0.19%     -    0s
     0     0 97451.0078    0    4 97263.8086 97451.0078  0.19%     -    1s
     0     0 97451.0078    0    4 97263.8086 97451.0078  0.19%     -    1s
     0     0 97451.0078    0    4 97263.8086 97451.0078  0.19%     -    1s
     0     2 97451.0078    0    4 97263.8086 97451.0078  0.19%     -    1s
 31968    26 97397.7875    0   12 97263.8086 97397.7875  0.14%   0.1    5s
H37547    29                    97323.292649 97390.9531  0.07%   0.2    6s

Explored 61798 nodes (11173 simplex iterations) in 8.10 seconds (8.68 work units)
Thread count was 8 (of 8 available processors)

Solution count 3: 97323.3 97323.3 97263.8 

Optimal solution found (tolerance 1.00e-04)
Best objective 9.732329264913e+04, best bound 9.733223368961e+04, gap 0.0092%
